SAT
9 -100 -4 73 -96 -65 -45 86 40 -23 50 55 -67 -5 20 22 -24 -64 99 74 59 -19 54 49 -68 38 76 82 27 62 -91 71 80 -7 -46 -66 28 31 -90 43 -95 75 -25 60 42 -97 63 78 -51 10 87 52 13 -83 47 -94 -2 3 21 39 93 14 -36 26 88 -15 -56 32 -6 72 29 -34 -81 58 70 -48 61 -30 -84 8 -16 69 33 57 -44 92 -12 53 -17 41 -98 -11 37 35 77 -1 79 18 89 85 0
